
  14    4
  10   10   10   10

   0   0   0   0   0   1 2 
   5   0   0   1   0   2 6 3 
   1   0   0  10   4   1 4 
   6   1   5   0   5   1 5 
   1   0   5   9   0   2 13 7 
   9   6   0   0   0   2 13 8 
   8   4  10   0  10   1 8 
   6   5   0   7   0   1 9 
   8   0   0   5   0   1 10 
   6  10   0   8   0   1 11 
   1  10   6   0   7   1 12 
   9  10   0   6   0   1 14
   1   0   0   0   0   1 14
   0   0   0   0   0   0 
